*RESTART,READ,STEP=6
** loaded
*STEP,NLGEOM,INC=100
*STATIC,SOLVER=SPOOLES
.1,1,1e-6,.25
*BOUNDARY
LEFT,1,1,0
RIGHT,1,1,-0.0002
YSYM,2,2,0
ZSYM,3,3,0
*TEMPERATURE
ALLN,20
*NODE PRINT,NSET=ALLN,FREQUENCY=99999
U,RF
*EL PRINT,ELSET=ALLE,FREQUENCY=99999
S,PEEQ,ME
*NODE FILE,FREQUENCY=99999
U
*EL FILE,FREQUENCY=99999
S,PEEQ
*RESTART,WRITE
*END STEP
** unloaded
*STEP,NLGEOM,INC=100
*STATIC,SOLVER=SPOOLES
.1,1,1e-6,.25
*BOUNDARY
LEFT,1,1,0
RIGHT,1,1,0
YSYM,2,2,0
ZSYM,3,3,0
*TEMPERATURE
ALLN,20
*NODE PRINT,NSET=ALLN,FREQUENCY=99999
U,RF
*EL PRINT,ELSET=ALLE,FREQUENCY=99999
S,PEEQ,ME
*NODE FILE,FREQUENCY=99999
U
*EL FILE,FREQUENCY=99999
S,PEEQ
*RESTART,WRITE
*END STEP
