*RESTART,READ,STEP=2
*STEP,NLGEOM,INC=100
*STATIC,SOLVER=SPOOLES
.1,1,1e-6,.25
*MODEL CHANGE,TYPE=ELEMENT,REMOVE
21,22,23,24,25,26,27,28,29,30,31,32,33,34,35,36
37,38,39,40
*NODE PRINT,NSET=ALLN,FREQUENCY=99999
U,RF
*EL PRINT,ELSET=ALLE,FREQUENCY=99999
S,PEEQ,ME
*RESTART,WRITE
*END STEP
*STEP,NLGEOM,INC=100
*STATIC,SOLVER=SPOOLES
.1,1,1e-6,.25
*MODEL CHANGE,TYPE=ELEMENT,ADD=STRAIN FREE
21,22,23,24,25,26,27,28,29,30,31,32,33,34,35,36
37,38,39,40
*NODE PRINT,NSET=ALLN,FREQUENCY=99999
U,RF
*EL PRINT,ELSET=ALLE,FREQUENCY=99999
S,PEEQ,ME
*RESTART,WRITE
*END STEP
