*HEADING
Native plastic deposition/cold cut history benchmark, mm N MPa C
*NODE,NSET=ALLN
1,0.0,0.0,0.0
2,1.0,0.0,0.0
3,2.0,0.0,0.0
4,3.0,0.0,0.0
5,4.0,0.0,0.0
6,5.0,0.0,0.0
7,6.0,0.0,0.0
8,7.0,0.0,0.0
9,8.0,0.0,0.0
10,9.0,0.0,0.0
11,10.0,0.0,0.0
12,0.0,1.0,0.0
13,1.0,1.0,0.0
14,2.0,1.0,0.0
15,3.0,1.0,0.0
16,4.0,1.0,0.0
17,5.0,1.0,0.0
18,6.0,1.0,0.0
19,7.0,1.0,0.0
20,8.0,1.0,0.0
21,9.0,1.0,0.0
22,10.0,1.0,0.0
23,0.0,2.0,0.0
24,1.0,2.0,0.0
25,2.0,2.0,0.0
26,3.0,2.0,0.0
27,4.0,2.0,0.0
28,5.0,2.0,0.0
29,6.0,2.0,0.0
30,7.0,2.0,0.0
31,8.0,2.0,0.0
32,9.0,2.0,0.0
33,10.0,2.0,0.0
34,0.0,0.0,0.5
35,1.0,0.0,0.5
36,2.0,0.0,0.5
37,3.0,0.0,0.5
38,4.0,0.0,0.5
39,5.0,0.0,0.5
40,6.0,0.0,0.5
41,7.0,0.0,0.5
42,8.0,0.0,0.5
43,9.0,0.0,0.5
44,10.0,0.0,0.5
45,0.0,1.0,0.5
46,1.0,1.0,0.5
47,2.0,1.0,0.5
48,3.0,1.0,0.5
49,4.0,1.0,0.5
50,5.0,1.0,0.5
51,6.0,1.0,0.5
52,7.0,1.0,0.5
53,8.0,1.0,0.5
54,9.0,1.0,0.5
55,10.0,1.0,0.5
56,0.0,2.0,0.5
57,1.0,2.0,0.5
58,2.0,2.0,0.5
59,3.0,2.0,0.5
60,4.0,2.0,0.5
61,5.0,2.0,0.5
62,6.0,2.0,0.5
63,7.0,2.0,0.5
64,8.0,2.0,0.5
65,9.0,2.0,0.5
66,10.0,2.0,0.5
67,0.0,0.0,1.0
68,1.0,0.0,1.0
69,2.0,0.0,1.0
70,3.0,0.0,1.0
71,4.0,0.0,1.0
72,5.0,0.0,1.0
73,6.0,0.0,1.0
74,7.0,0.0,1.0
75,8.0,0.0,1.0
76,9.0,0.0,1.0
77,10.0,0.0,1.0
78,0.0,1.0,1.0
79,1.0,1.0,1.0
80,2.0,1.0,1.0
81,3.0,1.0,1.0
82,4.0,1.0,1.0
83,5.0,1.0,1.0
84,6.0,1.0,1.0
85,7.0,1.0,1.0
86,8.0,1.0,1.0
87,9.0,1.0,1.0
88,10.0,1.0,1.0
89,0.0,2.0,1.0
90,1.0,2.0,1.0
91,2.0,2.0,1.0
92,3.0,2.0,1.0
93,4.0,2.0,1.0
94,5.0,2.0,1.0
95,6.0,2.0,1.0
96,7.0,2.0,1.0
97,8.0,2.0,1.0
98,9.0,2.0,1.0
99,10.0,2.0,1.0
100,0.0,0.0,1.5
101,1.0,0.0,1.5
102,2.0,0.0,1.5
103,3.0,0.0,1.5
104,4.0,0.0,1.5
105,5.0,0.0,1.5
106,6.0,0.0,1.5
107,7.0,0.0,1.5
108,8.0,0.0,1.5
109,9.0,0.0,1.5
110,10.0,0.0,1.5
111,0.0,1.0,1.5
112,1.0,1.0,1.5
113,2.0,1.0,1.5
114,3.0,1.0,1.5
115,4.0,1.0,1.5
116,5.0,1.0,1.5
117,6.0,1.0,1.5
118,7.0,1.0,1.5
119,8.0,1.0,1.5
120,9.0,1.0,1.5
121,10.0,1.0,1.5
122,0.0,2.0,1.5
123,1.0,2.0,1.5
124,2.0,2.0,1.5
125,3.0,2.0,1.5
126,4.0,2.0,1.5
127,5.0,2.0,1.5
128,6.0,2.0,1.5
129,7.0,2.0,1.5
130,8.0,2.0,1.5
131,9.0,2.0,1.5
132,10.0,2.0,1.5
133,0.0,0.0,2.0
134,1.0,0.0,2.0
135,2.0,0.0,2.0
136,3.0,0.0,2.0
137,4.0,0.0,2.0
138,5.0,0.0,2.0
139,6.0,0.0,2.0
140,7.0,0.0,2.0
141,8.0,0.0,2.0
142,9.0,0.0,2.0
143,10.0,0.0,2.0
144,0.0,1.0,2.0
145,1.0,1.0,2.0
146,2.0,1.0,2.0
147,3.0,1.0,2.0
148,4.0,1.0,2.0
149,5.0,1.0,2.0
150,6.0,1.0,2.0
151,7.0,1.0,2.0
152,8.0,1.0,2.0
153,9.0,1.0,2.0
154,10.0,1.0,2.0
155,0.0,2.0,2.0
156,1.0,2.0,2.0
157,2.0,2.0,2.0
158,3.0,2.0,2.0
159,4.0,2.0,2.0
160,5.0,2.0,2.0
161,6.0,2.0,2.0
162,7.0,2.0,2.0
163,8.0,2.0,2.0
164,9.0,2.0,2.0
165,10.0,2.0,2.0
*ELEMENT,TYPE=C3D8,ELSET=ALLE
1,1,2,13,12,34,35,46,45
2,2,3,14,13,35,36,47,46
3,3,4,15,14,36,37,48,47
4,4,5,16,15,37,38,49,48
5,5,6,17,16,38,39,50,49
6,6,7,18,17,39,40,51,50
7,7,8,19,18,40,41,52,51
8,8,9,20,19,41,42,53,52
9,9,10,21,20,42,43,54,53
10,10,11,22,21,43,44,55,54
11,12,13,24,23,45,46,57,56
12,13,14,25,24,46,47,58,57
13,14,15,26,25,47,48,59,58
14,15,16,27,26,48,49,60,59
15,16,17,28,27,49,50,61,60
16,17,18,29,28,50,51,62,61
17,18,19,30,29,51,52,63,62
18,19,20,31,30,52,53,64,63
19,20,21,32,31,53,54,65,64
20,21,22,33,32,54,55,66,65
21,34,35,46,45,67,68,79,78
22,35,36,47,46,68,69,80,79
23,36,37,48,47,69,70,81,80
24,37,38,49,48,70,71,82,81
25,38,39,50,49,71,72,83,82
26,39,40,51,50,72,73,84,83
27,40,41,52,51,73,74,85,84
28,41,42,53,52,74,75,86,85
29,42,43,54,53,75,76,87,86
30,43,44,55,54,76,77,88,87
31,45,46,57,56,78,79,90,89
32,46,47,58,57,79,80,91,90
33,47,48,59,58,80,81,92,91
34,48,49,60,59,81,82,93,92
35,49,50,61,60,82,83,94,93
36,50,51,62,61,83,84,95,94
37,51,52,63,62,84,85,96,95
38,52,53,64,63,85,86,97,96
39,53,54,65,64,86,87,98,97
40,54,55,66,65,87,88,99,98
41,67,68,79,78,100,101,112,111
42,68,69,80,79,101,102,113,112
43,69,70,81,80,102,103,114,113
44,70,71,82,81,103,104,115,114
45,71,72,83,82,104,105,116,115
46,72,73,84,83,105,106,117,116
47,73,74,85,84,106,107,118,117
48,74,75,86,85,107,108,119,118
49,75,76,87,86,108,109,120,119
50,76,77,88,87,109,110,121,120
51,78,79,90,89,111,112,123,122
52,79,80,91,90,112,113,124,123
53,80,81,92,91,113,114,125,124
54,81,82,93,92,114,115,126,125
55,82,83,94,93,115,116,127,126
56,83,84,95,94,116,117,128,127
57,84,85,96,95,117,118,129,128
58,85,86,97,96,118,119,130,129
59,86,87,98,97,119,120,131,130
60,87,88,99,98,120,121,132,131
61,100,101,112,111,133,134,145,144
62,101,102,113,112,134,135,146,145
63,102,103,114,113,135,136,147,146
64,103,104,115,114,136,137,148,147
65,104,105,116,115,137,138,149,148
66,105,106,117,116,138,139,150,149
67,106,107,118,117,139,140,151,150
68,107,108,119,118,140,141,152,151
69,108,109,120,119,141,142,153,152
70,109,110,121,120,142,143,154,153
71,111,112,123,122,144,145,156,155
72,112,113,124,123,145,146,157,156
73,113,114,125,124,146,147,158,157
74,114,115,126,125,147,148,159,158
75,115,116,127,126,148,149,160,159
76,116,117,128,127,149,150,161,160
77,117,118,129,128,150,151,162,161
78,118,119,130,129,151,152,163,162
79,119,120,131,130,152,153,164,163
80,120,121,132,131,153,154,165,164
*ELSET,ELSET=QT
1,2,3,4,5,6,7,8,9,10,11,12,13,14,15,16
17,18,19,20,21,22,23,24,25,26,27,28,29,30,31,32
33,34,35,36,37,38,39,40
*ELSET,ELSET=NI
41,42,43,44,45,46,47,48,49,50,51,52,53,54,55,56
57,58,59,60,61,62,63,64,65,66,67,68,69,70,71,72
73,74,75,76,77,78,79,80
*ELSET,ELSET=CUT
61,62,63,64,65,66,67,68,69,70,71,72,73,74,75,76
77,78,79,80
*NSET,NSET=LEFT
1,12,23,34,45,56,67,78,89,100,111,122,133,144,155
*NSET,NSET=RIGHT
11,22,33,44,55,66,77,88,99,110,121,132,143,154,165
*NSET,NSET=YSYM
1,2,3,4,5,6,7,8,9,10,11,34,35,36,37,38
39,40,41,42,43,44,67,68,69,70,71,72,73,74,75,76
77,100,101,102,103,104,105,106,107,108,109,110,133,134,135,136
137,138,139,140,141,142,143
*NSET,NSET=ZSYM
1,2,3,4,5,6,7,8,9,10,11,12,13,14,15,16
17,18,19,20,21,22,23,24,25,26,27,28,29,30,31,32
33
*MATERIAL,NAME=QT_REF
*ELASTIC
170000,.28
*PLASTIC
310,0
310,.1
*EXPANSION,ZERO=20
11.4e-6
*MATERIAL,NAME=NI_REF
*ELASTIC
205000,.31
*PLASTIC
73.75,0
105,.01
*EXPANSION,ZERO=20
13.3e-6
*SOLID SECTION,ELSET=QT,MATERIAL=QT_REF
*SOLID SECTION,ELSET=NI,MATERIAL=NI_REF
*INITIAL CONDITIONS,TYPE=TEMPERATURE
ALLN,20
** substrate_plastic
*STEP,NLGEOM,INC=100
*STATIC,SOLVER=SPOOLES
.1,1,1e-6,.25
*MODEL CHANGE,TYPE=ELEMENT,REMOVE
NI
*BOUNDARY
LEFT,1,1,0
RIGHT,1,1,0.03
YSYM,2,2,0
ZSYM,3,3,0
*TEMPERATURE
ALLN,20
*NODE PRINT,NSET=ALLN,FREQUENCY=99999
U,RF
*EL PRINT,ELSET=ALLE,FREQUENCY=99999
S,PEEQ,ME
*NODE FILE,FREQUENCY=99999
U
*EL FILE,FREQUENCY=99999
S,PEEQ
*RESTART,WRITE
*END STEP
** substrate_unload
*STEP,NLGEOM,INC=100
*STATIC,SOLVER=SPOOLES
.1,1,1e-6,.25
*BOUNDARY
LEFT,1,1,0
RIGHT,1,1,0
YSYM,2,2,0
ZSYM,3,3,0
*TEMPERATURE
ALLN,20
*NODE PRINT,NSET=ALLN,FREQUENCY=99999
U,RF
*EL PRINT,ELSET=ALLE,FREQUENCY=99999
S,PEEQ,ME
*NODE FILE,FREQUENCY=99999
U
*EL FILE,FREQUENCY=99999
S,PEEQ
*RESTART,WRITE
*END STEP
** substrate_reheat
*STEP,NLGEOM,INC=100
*STATIC,SOLVER=SPOOLES
.1,1,1e-6,.25
*BOUNDARY
LEFT,1,1,0
RIGHT,1,1,0
YSYM,2,2,0
ZSYM,3,3,0
*TEMPERATURE
ALLN,200
*NODE PRINT,NSET=ALLN,FREQUENCY=99999
U,RF
*EL PRINT,ELSET=ALLE,FREQUENCY=99999
S,PEEQ,ME
*NODE FILE,FREQUENCY=99999
U
*EL FILE,FREQUENCY=99999
S,PEEQ
*RESTART,WRITE
*END STEP
** deposit_coherent
*STEP,NLGEOM,INC=100
*STATIC,SOLVER=SPOOLES
.1,1,1e-6,.25
*MODEL CHANGE,TYPE=ELEMENT,ADD=STRAIN FREE
NI
*BOUNDARY
LEFT,1,1,0
RIGHT,1,1,0
YSYM,2,2,0
ZSYM,3,3,0
*TEMPERATURE
ALLN,200
*NODE PRINT,NSET=ALLN,FREQUENCY=99999
U,RF
*EL PRINT,ELSET=ALLE,FREQUENCY=99999
S,PEEQ,ME
*NODE FILE,FREQUENCY=99999
U
*EL FILE,FREQUENCY=99999
S,PEEQ
*RESTART,WRITE
*END STEP
** cold
*STEP,NLGEOM,INC=100
*STATIC,SOLVER=SPOOLES
.1,1,1e-6,.25
*BOUNDARY
LEFT,1,1,0
RIGHT,1,1,0
YSYM,2,2,0
ZSYM,3,3,0
*TEMPERATURE
ALLN,20
*NODE PRINT,NSET=ALLN,FREQUENCY=99999
U,RF
*EL PRINT,ELSET=ALLE,FREQUENCY=99999
S,PEEQ,ME
*NODE FILE,FREQUENCY=99999
U
*EL FILE,FREQUENCY=99999
S,PEEQ
*RESTART,WRITE
*END STEP
** cut
*STEP,NLGEOM,INC=100
*STATIC,SOLVER=SPOOLES
.1,1,1e-6,.25
*MODEL CHANGE,TYPE=ELEMENT,REMOVE
CUT
*BOUNDARY
LEFT,1,1,0
RIGHT,1,1,0
YSYM,2,2,0
ZSYM,3,3,0
*TEMPERATURE
ALLN,20
*NODE PRINT,NSET=ALLN,FREQUENCY=99999
U,RF
*EL PRINT,ELSET=ALLE,FREQUENCY=99999
S,PEEQ,ME
*NODE FILE,FREQUENCY=99999
U
*EL FILE,FREQUENCY=99999
S,PEEQ
*RESTART,WRITE
*END STEP
** loaded
*STEP,NLGEOM,INC=100
*STATIC,SOLVER=SPOOLES
.1,1,1e-6,.25
*BOUNDARY
LEFT,1,1,0
RIGHT,1,1,-0.0002
YSYM,2,2,0
ZSYM,3,3,0
*TEMPERATURE
ALLN,20
*NODE PRINT,NSET=ALLN,FREQUENCY=99999
U,RF
*EL PRINT,ELSET=ALLE,FREQUENCY=99999
S,PEEQ,ME
*NODE FILE,FREQUENCY=99999
U
*EL FILE,FREQUENCY=99999
S,PEEQ
*RESTART,WRITE
*END STEP
** unloaded
*STEP,NLGEOM,INC=100
*STATIC,SOLVER=SPOOLES
.1,1,1e-6,.25
*BOUNDARY
LEFT,1,1,0
RIGHT,1,1,0
YSYM,2,2,0
ZSYM,3,3,0
*TEMPERATURE
ALLN,20
*NODE PRINT,NSET=ALLN,FREQUENCY=99999
U,RF
*EL PRINT,ELSET=ALLE,FREQUENCY=99999
S,PEEQ,ME
*NODE FILE,FREQUENCY=99999
U
*EL FILE,FREQUENCY=99999
S,PEEQ
*RESTART,WRITE
*END STEP
